sifdecoder -A pc64.lnx.gfo -st   TARGUS

 Problem name: TARGUS

 Double precision version will be formed

 The objective function uses 2 linear groups
 
 There are 63 linear equality constraints
 
 There are 47 variables bounded only from above 
 There are 115 variables bounded from below and above 
 
 
 File successfully decoded
 CUTEST: tools (double precision version) compiled successfully
 CUTEst: ipopt (double precision version) compiled successfully

******************************************************************************
This program contains Ipopt, a library for large-scale nonlinear optimization.
 Ipopt is released as open source code under the Eclipse Public License (EPL).
         For more information visit http://projects.coin-or.org/Ipopt
******************************************************************************

This is Ipopt version trunk, running with linear solver ma57.

Number of nonzeros in equality constraint Jacobian...:      360
Number of nonzeros in inequality constraint Jacobian.:        0
Number of nonzeros in Lagrangian Hessian.............:      162

Total number of variables............................:      162
                     variables with only lower bounds:        0
                variables with lower and upper bounds:      115
                     variables with only upper bounds:       47
Total number of equality constraints.................:       63
Total number of inequality constraints...............:        0
        inequality constraints with only lower bounds:        0
   inequality constraints with lower and upper bounds:        0
        inequality constraints with only upper bounds:        0

iter    objective    inf_pr   inf_du lg(mu)  ||d||  lg(rg) alpha_du alpha_pr  ls
   0  1.0384608e+03 3.51e+03 9.80e-01  -1.0 0.00e+00    -  0.00e+00 0.00e+00   0
   1  1.0381696e+03 3.13e+03 1.18e+00  -1.0 1.84e+03    -  8.17e-02 1.07e-01h  1
   2  1.0903487e+03 1.45e-08 5.00e+00  -1.0 1.65e+03    -  1.85e-01 1.00e+00h  1
   3  1.0882316e+03 1.53e-08 2.52e-02  -1.0 4.91e+00    -  9.73e-01 1.00e+00f  1
   4  1.0870724e+03 4.87e-10 1.13e-03  -1.0 2.40e+00    -  9.90e-01 1.00e+00f  1
   5  1.0870588e+03 3.52e-11 8.13e-05  -1.0 2.81e-02    -  9.90e-01 1.00e+00f  1
   6  1.0870588e+03 4.50e-13 1.37e-06  -1.0 1.44e-05    -  9.96e-01 1.00e+00h  1
   7  1.0850860e+03 1.15e-09 4.29e-02  -2.5 3.98e-01    -  7.02e-01 7.36e-01f  1
   8  1.0842175e+03 1.01e-09 5.66e-02  -2.5 2.46e-01    -  9.52e-01 8.71e-01f  1
   9  1.0839345e+03 5.39e-10 2.83e-08  -2.5 1.39e-01    -  1.00e+00 1.00e+00f  1
iter    objective    inf_pr   inf_du lg(mu)  ||d||  lg(rg) alpha_du alpha_pr  ls
  10  1.0838188e+03 1.74e-10 1.62e-02  -3.8 8.92e-02    -  9.22e-01 1.00e+00f  1
  11  1.0838072e+03 7.84e-11 1.50e-09  -3.8 4.01e-02    -  1.00e+00 1.00e+00f  1
  12  1.0838002e+03 1.71e-11 1.84e-11  -5.7 2.64e-02    -  1.00e+00 1.00e+00f  1
  13  1.0837994e+03 8.05e-12 1.84e-11  -5.7 1.28e-02    -  1.00e+00 1.00e+00f  1
  14  1.0837993e+03 5.87e-11 1.23e-03  -5.7 5.69e-03    -  8.89e-01 1.00e+00f  1
  15  1.0837992e+03 1.07e-12 1.84e-11  -5.7 1.68e-03    -  1.00e+00 1.00e+00f  1
  16  1.0837991e+03 2.27e-13 3.33e-04  -8.6 1.40e-03  -4.0 8.90e-01 9.99e-01f  1
  17  1.0837991e+03 3.38e-11 4.40e-02  -8.6 3.46e-04  -4.5 9.17e-01 1.00e+00f  1
Reallocating memory for MA57: lfact (4710)
  18  1.0837991e+03 1.33e-11 1.01e-09  -8.6 9.07e-05  -5.0 1.00e+00 1.00e+00h  1

Number of Iterations....: 18

                                   (scaled)                 (unscaled)
Objective...............:   1.0837991234119600e+03    1.0837991234119600e+03
Dual infeasibility......:   1.0072899692136958e-09    1.0072899692136958e-09
Constraint violation....:   1.3320598366023293e-11    1.3320598366023293e-11
Complementarity.........:   4.5503695582485058e-09    4.5503695582485058e-09
Overall NLP error.......:   4.5503695582485058e-09    4.5503695582485058e-09


Number of objective function evaluations             = 19
Number of objective gradient evaluations             = 19
Number of equality constraint evaluations            = 19
Number of inequality constraint evaluations          = 0
Number of equality constraint Jacobian evaluations   = 19
Number of inequality constraint Jacobian evaluations = 0
Number of Lagrangian Hessian evaluations             = 18
Total CPU secs in IPOPT (w/o function evaluations)   =      0.060
Total CPU secs in NLP function evaluations           =      0.004

EXIT: Optimal Solution Found.

************************ CUTEst statistics ************************


 Package used            :  IPOPT
 Problem                 :  TARGUS    
 # variables             =             162
 # constraints           =              63
 # objective functions   =        0.3900000E+02
 # objective gradients   =        0.2000000E+02
 # objective Hessians    =        0.1900000E+02
 # Hessian-vector prdct  =        0.0000000E+00
 # constraints functions =        0.4000000E+02
 # constraints gradients =        0.2100000E+02
 # constraints Hessians  =        0.1900000E+02
 Exit code               =               0
 Final f                 =        1.0837991234119600D+03
 Bounds feasibility      =        3.4795921237673610D-05
 Set up time             =            0.02 seconds
 Solve time              =            0.18 seconds


******************************************************************

